2051736
6 20 207524
20 5 53722
5 11 43367
11 12 123742
12 9 50022
9 13 45505
13 17 27808
17 2 23709
2 7 108023
7 1 35813
1 3 117658
3 18 140190
18 14 103707
14 8 61570
8 15 67784
15 19 105167
19 4 238490
4 16 223221
16 10 21151
10 6 253563
